S = 4;
start = [|0,0,0,0,0,4,0,0,0,0,0,6,0,0,0,0|
0,0,0,7,3,0,12,0,0,0,0,0,0,0,0,0|
0,0,0,0,0,11,0,0,15,5,0,0,0,0,0,0|
0,14,0,0,0,0,13,0,12,0,0,0,0,0,0,6|
0,5,0,0,0,0,8,0,9,0,12,0,0,0,0,0|
12,0,0,0,0,13,0,0,11,7,15,0,10,0,0,0|
8,0,0,0,0,0,0,0,4,1,0,5,7,0,0,0|
0,0,4,0,0,0,5,0,0,0,0,0,9,12,0,0|
0,16,0,0,0,0,0,0,0,2,0,0,0,0,0,0|
3,0,2,12,0,7,10,0,0,0,0,0,0,6,0,0|
4,0,0,0,0,0,9,16,0,0,8,0,12,0,5,0|
0,9,0,0,14,0,0,0,3,15,0,0,0,0,0,0|
0,2,6,0,0,0,0,0,8,0,16,0,0,11,0,12|
0,0,5,0,0,0,0,6,0,0,0,0,0,10,0,0|
14,12,0,0,0,0,0,0,0,0,0,0,0,0,2,3|
15,0,0,1,8,0,2,0,0,10,9,0,14,16,0,0|];